\ENCODING=ISO-8859-1
\Problem name: ilog.cplex

Minimize
 obj1: 99730 x1 + 106380 x2 + 108529 x3 + 98360 x4 + 106085 x5 + 99179 x6
       + 104778 x7 + 106157 x8 + 102308 x9 + 95415 x10 + 97947 x11 + 90664 x12
       + 91086 x13 + 102989 x14 + 107221 x15 + 107582 x16 + 102779 x17
       + 100742 x18 + 91783 x19 + 95140 x20 + 94960 x21 + 100843 x22
       + 101539 x23 + 99517 x24 + 91775 x25 + 107806 x26 + 105950 x27
       + 109291 x28 + 94952 x29 + 91530 x30 + 105874 x31 + 92249 x32
       + 90820 x33 + 96347 x34 + 101151 x35 + 100315 x36 + 105858 x37
       + 93203 x38 + 100115 x39 + 91277 x40 + 107022 x41 + 107920 x42
       + 96301 x43 + 109658 x44 + 102550 x45 + 104896 x46 + 102328 x47
       + 93288 x48 + 93914 x49 + 92672 x50 + 101259 x51 + 106997 x52
       + 100253 x53 + 105447 x54 + 91708 x55 + 90353 x56 + 102906 x57
       + 102940 x58 + 104548 x59 + 102471 x60 + 93655 x61 + 94797 x62
       + 106262 x63 + 96790 x64 + 91002 x65 + 107917 x66 + 108595 x67
       + 108377 x68 + 93099 x69 + 105789 x70 + 95365 x71 + 95548 x72
       + 107518 x73 + 95216 x74 + 98603 x75 + 96654 x76 + 94113 x77
       + 107484 x78 + 97716 x79 + 102267 x80 + 96914 x81 + 104289 x82
       + 103290 x83 + 106897 x84 + 97976 x85 + 105290 x86 + 92219 x87
       + 107045 x88 + 107583 x89 + 104427 x90 + 99380 x91 + 90780 x92
       + 97006 x93 + 104696 x94 + 105621 x95 + 101908 x96 + 102337 x97
       + 99170 x98 + 97028 x99 + 105202 x100 + 100924 x101 + 99885 x102
       + 106218 x103 + 108312 x104 + 105551 x105 + 105553 x106 + 102827 x107
       + 90599 x108 + 95732 x109 + 104112 x110 + 97440 x111 + 109565 x112
       + 90358 x113 + 106747 x114 + 100854 x115 + 101404 x116 + 101433 x117
       + 106323 x118 + 98881 x119 + 103878 x120 + 106859 x121 + 99914 x122
       + 103455 x123 + 107361 x124 + 98742 x125 + 100215 x126 + 106951 x127
       + 95499 x128 + 105389 x129 + 109326 x130 + 102874 x131 + 95601 x132
       + 92338 x133 + 92331 x134 + 98006 x135 + 106219 x136 + 100723 x137
       + 106288 x138 + 94405 x139 + 91082 x140 + 92684 x141 + 106161 x142
       + 108133 x143 + 96981 x144 + 92993 x145 + 102238 x146 + 96405 x147
       + 102668 x148 + 90225 x149 + 106262 x150 + 95632 x151 + 91805 x152
       + 102984 x153 + 105277 x154 + 105336 x155 + 107570 x156 + 104552 x157
       + 94536 x158 + 101077 x159 + 91655 x160 + 92759 x161 + 103799 x162
       + 103284 x163 + 96242 x164 + 90981 x165 + 104972 x166 + 108291 x167
       + 103946 x168 + 90857 x169 + 93283 x170 + 102886 x171 + 97757 x172
       + 97669 x173 + 109042 x174 + 94336 x175 + 90709 x176 + 95262 x177
       + 92523 x178 + 94112 x179 + 93283 x180 + 105501 x181 + 92351 x182
       + 100673 x183 + 102353 x184 + 90196 x185 + 95852 x186 + 94218 x187
       + 100896 x188 + 94129 x189 + 95024 x190 + 91397 x191 + 92282 x192
       + 94434 x193 + 98693 x194 + 95391 x195 + 91703 x196 + 99275 x197
       + 108217 x198 + 105473 x199 + 96918 x200 + 103668 x201 + 93814 x202
       + 107123 x203 + 106175 x204 + 94099 x205 + 95002 x206 + 108175 x207
       + 96370 x208 + 108851 x209 + 98792 x210 + 101032 x211 + 99212 x212
       + 94894 x213 + 101475 x214 + 102760 x215 + 95697 x216 + 96746 x217
       + 97652 x218 + 107218 x219 + 107338 x220 + 107870 x221 + 103648 x222
       + 96379 x223 + 96349 x224 + 90994 x225 + 91513 x226 + 101584 x227
       + 96410 x228 + 90153 x229 + 104519 x230 + 99763 x231 + 100626 x232
       + 94307 x233 + 105404 x234 + 94453 x235 + 93953 x236 + 90070 x237
       + 94561 x238 + 106989 x239 + 93635 x240 + 93084 x241 + 96801 x242
       + 93800 x243 + 106664 x244 + 92163 x245 + 101002 x246 + 97695 x247
       + 105556 x248 + 99966 x249 + 94476 x250 + 98706 x251 + 100857 x252
       + 94958 x253 + 107216 x254 + 102552 x255 + 103891 x256 + 101759 x257
       + 100791 x258 + 102089 x259 + 93102 x260 + 93830 x261 + 91671 x262
       + 108450 x263 + 98525 x264 + 97006 x265 + 95232 x266 + 99211 x267
       + 91806 x268 + 90065 x269 + 95166 x270 + 107515 x271 + 104662 x272
       + 95423 x273 + 106971 x274 + 98313 x275 + 100380 x276 + 105574 x277
       + 108723 x278 + 105696 x279 + 95327 x280 + 99025 x281 + 97525 x282
       + 98753 x283 + 90440 x284 + 103248 x285 + 95832 x286 + 102484 x287
       + 106268 x288 + 101572 x289 + 98243 x290 + 104977 x291 + 99377 x292
       + 95963 x293 + 96458 x294 + 92430 x295 + 92794 x296 + 108254 x297
       + 107715 x298 + 109507 x299 + 171389 x300 + 188736 x301 + 183068 x302
       + 192724 x303 + 193467 x304 + 182280 x305 + 192949 x306 + 214667 x307
       + 190360 x308 + 183072 x309 + 195687 x310 + 183348 x311 + 213477 x312
       + 183854 x313 + 191338 x314 + 214562 x315 + 182926 x316 + 212083 x317
       + 180317 x318 + 215599 x319 + 196511 x320 + 209202 x321 + 204180 x322
       + 205185 x323 + 187611 x324 + 198526 x325 + 213962 x326 + 185204 x327
       + 187152 x328 + 198030 x329 + 189613 x330 + 197088 x331 + 217106 x332
       + 203422 x333 + 210319 x334 + 181697 x335 + 181145 x336 + 199735 x337
       + 185576 x338 + 191277 x339 + 209940 x340 + 196282 x341 + 180631 x342
       + 215523 x343 + 204335 x344 + 200154 x345 + 187489 x346 + 181028 x347
       + 198958 x348 + 207561 x349 + 203929 x350 + 204365 x351 + 202056 x352
       + 180150 x353 + 188054 x354 + 203776 x355 + 194234 x356 + 185056 x357
       + 214645 x358 + 182912 x359 + 421867 x360
Subject To
 c1:   - x1 - x2 - x3 - x4 + x5 + x8 + x12 + x20 + x35 + x41 + x43 - x44 + x46
       - x49 + x57  = 0
 c2:   - x61 - x62 - x63 - x64 + x65 + x68 + x72 + x80 + x95 + x101 + x103
       - x104 + x106 - x109 + x117  = 0
 c3:   - x121 - x122 - x123 - x124 + x125 + x128 + x132 + x140 + x155 + x161
       + x163 - x164 + x166 - x169 + x177  = 0
 c4:   - x181 - x182 - x183 - x184 + x185 + x188 + x192 + x200 + x215 + x221
       + x223 - x224 + x226 - x229 + x237  = 0
 c5:   - x241 - x242 - x243 - x244 + x245 + x248 + x252 + x260 + x275 + x281
       + x283 - x284 + x286 - x289 + x297  = 0
 c6:   x7 + x10 - x19 + x26 - x27 + x29 + x32 - x35 - x40 - x59  = 0
 c7:   x67 + x70 - x79 + x86 - x87 + x89 + x92 - x95 - x100 - x119  = 0
 c8:   x127 + x130 - x139 + x146 - x147 + x149 + x152 - x155 - x160 - x179  = 0
 c9:   x187 + x190 - x199 + x206 - x207 + x209 + x212 - x215 - x220 - x239  = 0
 c10:  x247 + x250 - x259 + x266 - x267 + x269 + x272 - x275 - x280 - x299  = 0
 c11:  - x6 - x15 + x18 + x19 + x23 - x29 - x37 - x39 - x48 + x51 - x57 - x58
        = 1
 c12:  - x66 - x75 + x78 + x79 + x83 - x89 - x97 - x99 - x108 + x111 - x117
       - x118  = 0
 c13:  - x126 - x135 + x138 + x139 + x143 - x149 - x157 - x159 - x168 + x171
       - x177 - x178  = 0
 c14:  - x186 - x195 + x198 + x199 + x203 - x209 - x217 - x219 - x228 + x231
       - x237 - x238  = -1
 c15:  - x246 - x255 + x258 + x259 + x263 - x269 - x277 - x279 - x288 + x291
       - x297 - x298  = 0
 c16:  x2 + x13 - x16 - x17 - x25 + x39 - x41 + x42 + x47 - x60  = 0
 c17:  x62 + x73 - x76 - x77 - x85 + x99 - x101 + x102 + x107 - x120  = -1
 c18:  x122 + x133 - x136 - x137 - x145 + x159 - x161 + x162 + x167 - x180  = 0
 c19:  x182 + x193 - x196 - x197 - x205 + x219 - x221 + x222 + x227 - x240  = 0
 c20:  x242 + x253 - x256 - x257 - x265 + x279 - x281 + x282 + x287 - x300  = 0
 c21:  - x5 - x11 - x18 + x21 - x22 + x31 - x32 - x34 + x52 + x54 + x56 + x60
        = 0
 c22:  - x65 - x71 - x78 + x81 - x82 + x91 - x92 - x94 + x112 + x114 + x116
       + x120  = 1
 c23:  - x125 - x131 - x138 + x141 - x142 + x151 - x152 - x154 + x172 + x174
       + x176 + x180  = 0
 c24:  - x185 - x191 - x198 + x201 - x202 + x211 - x212 - x214 + x232 + x234
       + x236 + x240  = 0
 c25:  - x245 - x251 - x258 + x261 - x262 + x271 - x272 - x274 + x292 + x294
       + x296 + x300  = 0
 c26:  - x7 + x9 - x13 + x15 + x16 - x20 - x21 + x22 - x23 + x27 - x36 - x45
       + x49 + x55  = 0
 c27:  - x67 + x69 - x73 + x75 + x76 - x80 - x81 + x82 - x83 + x87 - x96 - x105
       + x109 + x115  = 0
 c28:  - x127 + x129 - x133 + x135 + x136 - x140 - x141 + x142 - x143 + x147
       - x156 - x165 + x169 + x175  = -1
 c29:  - x187 + x189 - x193 + x195 + x196 - x200 - x201 + x202 - x203 + x207
       - x216 - x225 + x229 + x235  = 1
 c30:  - x247 + x249 - x253 + x255 + x256 - x260 - x261 + x262 - x263 + x267
       - x276 - x285 + x289 + x295  = 0
 c31:  x4 + x6 + x14 + x25 + x28 + x36 + x40 - x42 - x46 - x53 - x54 - x55  = 0
 c32:  x64 + x66 + x74 + x85 + x88 + x96 + x100 - x102 - x106 - x113 - x114
       - x115  = 0
 c33:  x124 + x126 + x134 + x145 + x148 + x156 + x160 - x162 - x166 - x173
       - x174 - x175  = 0
 c34:  x184 + x186 + x194 + x205 + x208 + x216 + x220 - x222 - x226 - x233
       - x234 - x235  = 0
 c35:  x244 + x246 + x254 + x265 + x268 + x276 + x280 - x282 - x286 - x293
       - x294 - x295  = 0
 c36:  x3 - x8 - x9 + x11 - x28 + x30 - x33 + x38 + x48 - x51 - x52 + x53  = 0
 c37:  x63 - x68 - x69 + x71 - x88 + x90 - x93 + x98 + x108 - x111 - x112
       + x113  = 0
 c38:  x123 - x128 - x129 + x131 - x148 + x150 - x153 + x158 + x168 - x171
       - x172 + x173  = 1
 c39:  x183 - x188 - x189 + x191 - x208 + x210 - x213 + x218 + x228 - x231
       - x232 + x233  = 0
 c40:  x243 - x248 - x249 + x251 - x268 + x270 - x273 + x278 + x288 - x291
       - x292 + x293  = 0
 c41:  - x10 - x12 + x24 + x34 - x38 + x44 + x45 - x50 - x56 + x58  = -1
 c42:  - x70 - x72 + x84 + x94 - x98 + x104 + x105 - x110 - x116 + x118  = 0
 c43:  - x130 - x132 + x144 + x154 - x158 + x164 + x165 - x170 - x176 + x178
        = 0
 c44:  - x190 - x192 + x204 + x214 - x218 + x224 + x225 - x230 - x236 + x238
        = 0
 c45:  - x250 - x252 + x264 + x274 - x278 + x284 + x285 - x290 - x296 + x298
        = 1
 c46:  x1 - x14 + x17 - x24 - x26 - x30 - x31 + x33 + x37 - x43 - x47 + x50
       + x59  = 0
 c47:  x61 - x74 + x77 - x84 - x86 - x90 - x91 + x93 + x97 - x103 - x107 + x110
       + x119  = 0
 c48:  x121 - x134 + x137 - x144 - x146 - x150 - x151 + x153 + x157 - x163
       - x167 + x170 + x179  = 0
 c49:  x181 - x194 + x197 - x204 - x206 - x210 - x211 + x213 + x217 - x223
       - x227 + x230 + x239  = 0
 c50:  x241 - x254 + x257 - x264 - x266 - x270 - x271 + x273 + x277 - x283
       - x287 + x290 + x299  = -1
 c51:  4 x1 + 4 x61 + 4 x121 + 4 x181 + 4 x241 - 10 x301 <= 0
 c52:  4 x2 + 4 x62 + 4 x122 + 4 x182 + 4 x242 - 10 x302 <= 0
 c53:  4 x3 + 4 x63 + 4 x123 + 4 x183 + 4 x243 - 10 x303 <= 0
 c54:  4 x4 + 4 x64 + 4 x124 + 4 x184 + 4 x244 - 11 x304 <= 0
 c55:  4 x5 + 4 x65 + 4 x125 + 4 x185 + 4 x245 - 11 x305 <= 0
 c56:  4 x6 + 4 x66 + 4 x126 + 4 x186 + 4 x246 - 9 x306 <= 0
 c57:  4 x7 + 4 x67 + 4 x127 + 4 x187 + 4 x247 - 10 x307 <= 0
 c58:  4 x8 + 4 x68 + 4 x128 + 4 x188 + 4 x248 - 11 x308 <= 0
 c59:  4 x9 + 4 x69 + 4 x129 + 4 x189 + 4 x249 - 10 x309 <= 0
 c60:  4 x10 + 4 x70 + 4 x130 + 4 x190 + 4 x250 - 10 x310 <= 0
 c61:  4 x11 + 4 x71 + 4 x131 + 4 x191 + 4 x251 - 11 x311 <= 0
 c62:  4 x12 + 4 x72 + 4 x132 + 4 x192 + 4 x252 - 10 x312 <= 0
 c63:  4 x13 + 4 x73 + 4 x133 + 4 x193 + 4 x253 - 11 x313 <= 0
 c64:  4 x14 + 4 x74 + 4 x134 + 4 x194 + 4 x254 - 10 x314 <= 0
 c65:  4 x15 + 4 x75 + 4 x135 + 4 x195 + 4 x255 - 9 x315 <= 0
 c66:  4 x16 + 4 x76 + 4 x136 + 4 x196 + 4 x256 - 10 x316 <= 0
 c67:  4 x17 + 4 x77 + 4 x137 + 4 x197 + 4 x257 - 10 x317 <= 0
 c68:  4 x18 + 4 x78 + 4 x138 + 4 x198 + 4 x258 - 9 x318 <= 0
 c69:  4 x19 + 4 x79 + 4 x139 + 4 x199 + 4 x259 - 9 x319 <= 0
 c70:  4 x20 + 4 x80 + 4 x140 + 4 x200 + 4 x260 - 10 x320 <= 0
 c71:  4 x21 + 4 x81 + 4 x141 + 4 x201 + 4 x261 - 9 x321 <= 0
 c72:  4 x22 + 4 x82 + 4 x142 + 4 x202 + 4 x262 - 10 x322 <= 0
 c73:  4 x23 + 4 x83 + 4 x143 + 4 x203 + 4 x263 - 10 x323 <= 0
 c74:  4 x24 + 4 x84 + 4 x144 + 4 x204 + 4 x264 - 11 x324 <= 0
 c75:  4 x25 + 4 x85 + 4 x145 + 4 x205 + 4 x265 - 9 x325 <= 0
 c76:  4 x26 + 4 x86 + 4 x146 + 4 x206 + 4 x266 - 11 x326 <= 0
 c77:  4 x27 + 4 x87 + 4 x147 + 4 x207 + 4 x267 - 9 x327 <= 0
 c78:  4 x28 + 4 x88 + 4 x148 + 4 x208 + 4 x268 - 9 x328 <= 0
 c79:  4 x29 + 4 x89 + 4 x149 + 4 x209 + 4 x269 - 10 x329 <= 0
 c80:  4 x30 + 4 x90 + 4 x150 + 4 x210 + 4 x270 - 10 x330 <= 0
 c81:  4 x31 + 4 x91 + 4 x151 + 4 x211 + 4 x271 - 11 x331 <= 0
 c82:  4 x32 + 4 x92 + 4 x152 + 4 x212 + 4 x272 - 10 x332 <= 0
 c83:  4 x33 + 4 x93 + 4 x153 + 4 x213 + 4 x273 - 10 x333 <= 0
 c84:  4 x34 + 4 x94 + 4 x154 + 4 x214 + 4 x274 - 11 x334 <= 0
 c85:  4 x35 + 4 x95 + 4 x155 + 4 x215 + 4 x275 - 9 x335 <= 0
 c86:  4 x36 + 4 x96 + 4 x156 + 4 x216 + 4 x276 - 10 x336 <= 0
 c87:  4 x37 + 4 x97 + 4 x157 + 4 x217 + 4 x277 - 10 x337 <= 0
 c88:  4 x38 + 4 x98 + 4 x158 + 4 x218 + 4 x278 - 10 x338 <= 0
 c89:  4 x39 + 4 x99 + 4 x159 + 4 x219 + 4 x279 - 10 x339 <= 0
 c90:  4 x40 + 4 x100 + 4 x160 + 4 x220 + 4 x280 - 10 x340 <= 0
 c91:  4 x41 + 4 x101 + 4 x161 + 4 x221 + 4 x281 - 10 x341 <= 0
 c92:  4 x42 + 4 x102 + 4 x162 + 4 x222 + 4 x282 - 10 x342 <= 0
 c93:  4 x43 + 4 x103 + 4 x163 + 4 x223 + 4 x283 - 10 x343 <= 0
 c94:  4 x44 + 4 x104 + 4 x164 + 4 x224 + 4 x284 - 10 x344 <= 0
 c95:  4 x45 + 4 x105 + 4 x165 + 4 x225 + 4 x285 - 11 x345 <= 0
 c96:  4 x46 + 4 x106 + 4 x166 + 4 x226 + 4 x286 - 10 x346 <= 0
 c97:  4 x47 + 4 x107 + 4 x167 + 4 x227 + 4 x287 - 9 x347 <= 0
 c98:  4 x48 + 4 x108 + 4 x168 + 4 x228 + 4 x288 - 9 x348 <= 0
 c99:  4 x49 + 4 x109 + 4 x169 + 4 x229 + 4 x289 - 11 x349 <= 0
 c100: 4 x50 + 4 x110 + 4 x170 + 4 x230 + 4 x290 - 10 x350 <= 0
 c101: 4 x51 + 4 x111 + 4 x171 + 4 x231 + 4 x291 - 11 x351 <= 0
 c102: 4 x52 + 4 x112 + 4 x172 + 4 x232 + 4 x292 - 9 x352 <= 0
 c103: 4 x53 + 4 x113 + 4 x173 + 4 x233 + 4 x293 - 10 x353 <= 0
 c104: 4 x54 + 4 x114 + 4 x174 + 4 x234 + 4 x294 - 9 x354 <= 0
 c105: 4 x55 + 4 x115 + 4 x175 + 4 x235 + 4 x295 - 10 x355 <= 0
 c106: 4 x56 + 4 x116 + 4 x176 + 4 x236 + 4 x296 - 10 x356 <= 0
 c107: 4 x57 + 4 x117 + 4 x177 + 4 x237 + 4 x297 - 10 x357 <= 0
 c108: 4 x58 + 4 x118 + 4 x178 + 4 x238 + 4 x298 - 9 x358 <= 0
 c109: 4 x59 + 4 x119 + 4 x179 + 4 x239 + 4 x299 - 9 x359 <= 0
 c110: 4 x60 + 4 x120 + 4 x180 + 4 x240 + 4 x300 - 13 x360 <= 0
Bounds
 0 <= x1 <= 1
 0 <= x2 <= 1
 0 <= x3 <= 1
 0 <= x4 <= 1
 0 <= x5 <= 1
 0 <= x6 <= 1
 0 <= x7 <= 1
 0 <= x8 <= 1
 0 <= x9 <= 1
 0 <= x10 <= 1
 0 <= x11 <= 1
 0 <= x12 <= 1
 0 <= x13 <= 1
 0 <= x14 <= 1
 0 <= x15 <= 1
 0 <= x16 <= 1
 0 <= x17 <= 1
 0 <= x18 <= 1
 0 <= x19 <= 1
 0 <= x20 <= 1
 0 <= x21 <= 1
 0 <= x22 <= 1
 0 <= x23 <= 1
 0 <= x24 <= 1
 0 <= x25 <= 1
 0 <= x26 <= 1
 0 <= x27 <= 1
 0 <= x28 <= 1
 0 <= x29 <= 1
 0 <= x30 <= 1
 0 <= x31 <= 1
 0 <= x32 <= 1
 0 <= x33 <= 1
 0 <= x34 <= 1
 0 <= x35 <= 1
 0 <= x36 <= 1
 0 <= x37 <= 1
 0 <= x38 <= 1
 0 <= x39 <= 1
 0 <= x40 <= 1
 0 <= x41 <= 1
 0 <= x42 <= 1
 0 <= x43 <= 1
 0 <= x44 <= 1
 0 <= x45 <= 1
 0 <= x46 <= 1
 0 <= x47 <= 1
 0 <= x48 <= 1
 0 <= x49 <= 1
 0 <= x50 <= 1
 0 <= x51 <= 1
 0 <= x52 <= 1
 0 <= x53 <= 1
 0 <= x54 <= 1
 0 <= x55 <= 1
 0 <= x56 <= 1
 0 <= x57 <= 1
 0 <= x58 <= 1
 0 <= x59 <= 1
 0 <= x60 <= 1
 0 <= x61 <= 1
 0 <= x62 <= 1
 0 <= x63 <= 1
 0 <= x64 <= 1
 0 <= x65 <= 1
 0 <= x66 <= 1
 0 <= x67 <= 1
 0 <= x68 <= 1
 0 <= x69 <= 1
 0 <= x70 <= 1
 0 <= x71 <= 1
 0 <= x72 <= 1
 0 <= x73 <= 1
 0 <= x74 <= 1
 0 <= x75 <= 1
 0 <= x76 <= 1
 0 <= x77 <= 1
 0 <= x78 <= 1
 0 <= x79 <= 1
 0 <= x80 <= 1
 0 <= x81 <= 1
 0 <= x82 <= 1
 0 <= x83 <= 1
 0 <= x84 <= 1
 0 <= x85 <= 1
 0 <= x86 <= 1
 0 <= x87 <= 1
 0 <= x88 <= 1
 0 <= x89 <= 1
 0 <= x90 <= 1
 0 <= x91 <= 1
 0 <= x92 <= 1
 0 <= x93 <= 1
 0 <= x94 <= 1
 0 <= x95 <= 1
 0 <= x96 <= 1
 0 <= x97 <= 1
 0 <= x98 <= 1
 0 <= x99 <= 1
 0 <= x100 <= 1
 0 <= x101 <= 1
 0 <= x102 <= 1
 0 <= x103 <= 1
 0 <= x104 <= 1
 0 <= x105 <= 1
 0 <= x106 <= 1
 0 <= x107 <= 1
 0 <= x108 <= 1
 0 <= x109 <= 1
 0 <= x110 <= 1
 0 <= x111 <= 1
 0 <= x112 <= 1
 0 <= x113 <= 1
 0 <= x114 <= 1
 0 <= x115 <= 1
 0 <= x116 <= 1
 0 <= x117 <= 1
 0 <= x118 <= 1
 0 <= x119 <= 1
 0 <= x120 <= 1
 0 <= x121 <= 1
 0 <= x122 <= 1
 0 <= x123 <= 1
 0 <= x124 <= 1
 0 <= x125 <= 1
 0 <= x126 <= 1
 0 <= x127 <= 1
 0 <= x128 <= 1
 0 <= x129 <= 1
 0 <= x130 <= 1
 0 <= x131 <= 1
 0 <= x132 <= 1
 0 <= x133 <= 1
 0 <= x134 <= 1
 0 <= x135 <= 1
 0 <= x136 <= 1
 0 <= x137 <= 1
 0 <= x138 <= 1
 0 <= x139 <= 1
 0 <= x140 <= 1
 0 <= x141 <= 1
 0 <= x142 <= 1
 0 <= x143 <= 1
 0 <= x144 <= 1
 0 <= x145 <= 1
 0 <= x146 <= 1
 0 <= x147 <= 1
 0 <= x148 <= 1
 0 <= x149 <= 1
 0 <= x150 <= 1
 0 <= x151 <= 1
 0 <= x152 <= 1
 0 <= x153 <= 1
 0 <= x154 <= 1
 0 <= x155 <= 1
 0 <= x156 <= 1
 0 <= x157 <= 1
 0 <= x158 <= 1
 0 <= x159 <= 1
 0 <= x160 <= 1
 0 <= x161 <= 1
 0 <= x162 <= 1
 0 <= x163 <= 1
 0 <= x164 <= 1
 0 <= x165 <= 1
 0 <= x166 <= 1
 0 <= x167 <= 1
 0 <= x168 <= 1
 0 <= x169 <= 1
 0 <= x170 <= 1
 0 <= x171 <= 1
 0 <= x172 <= 1
 0 <= x173 <= 1
 0 <= x174 <= 1
 0 <= x175 <= 1
 0 <= x176 <= 1
 0 <= x177 <= 1
 0 <= x178 <= 1
 0 <= x179 <= 1
 0 <= x180 <= 1
 0 <= x181 <= 1
 0 <= x182 <= 1
 0 <= x183 <= 1
 0 <= x184 <= 1
 0 <= x185 <= 1
 0 <= x186 <= 1
 0 <= x187 <= 1
 0 <= x188 <= 1
 0 <= x189 <= 1
 0 <= x190 <= 1
 0 <= x191 <= 1
 0 <= x192 <= 1
 0 <= x193 <= 1
 0 <= x194 <= 1
 0 <= x195 <= 1
 0 <= x196 <= 1
 0 <= x197 <= 1
 0 <= x198 <= 1
 0 <= x199 <= 1
 0 <= x200 <= 1
 0 <= x201 <= 1
 0 <= x202 <= 1
 0 <= x203 <= 1
 0 <= x204 <= 1
 0 <= x205 <= 1
 0 <= x206 <= 1
 0 <= x207 <= 1
 0 <= x208 <= 1
 0 <= x209 <= 1
 0 <= x210 <= 1
 0 <= x211 <= 1
 0 <= x212 <= 1
 0 <= x213 <= 1
 0 <= x214 <= 1
 0 <= x215 <= 1
 0 <= x216 <= 1
 0 <= x217 <= 1
 0 <= x218 <= 1
 0 <= x219 <= 1
 0 <= x220 <= 1
 0 <= x221 <= 1
 0 <= x222 <= 1
 0 <= x223 <= 1
 0 <= x224 <= 1
 0 <= x225 <= 1
 0 <= x226 <= 1
 0 <= x227 <= 1
 0 <= x228 <= 1
 0 <= x229 <= 1
 0 <= x230 <= 1
 0 <= x231 <= 1
 0 <= x232 <= 1
 0 <= x233 <= 1
 0 <= x234 <= 1
 0 <= x235 <= 1
 0 <= x236 <= 1
 0 <= x237 <= 1
 0 <= x238 <= 1
 0 <= x239 <= 1
 0 <= x240 <= 1
 0 <= x241 <= 1
 0 <= x242 <= 1
 0 <= x243 <= 1
 0 <= x244 <= 1
 0 <= x245 <= 1
 0 <= x246 <= 1
 0 <= x247 <= 1
 0 <= x248 <= 1
 0 <= x249 <= 1
 0 <= x250 <= 1
 0 <= x251 <= 1
 0 <= x252 <= 1
 0 <= x253 <= 1
 0 <= x254 <= 1
 0 <= x255 <= 1
 0 <= x256 <= 1
 0 <= x257 <= 1
 0 <= x258 <= 1
 0 <= x259 <= 1
 0 <= x260 <= 1
 0 <= x261 <= 1
 0 <= x262 <= 1
 0 <= x263 <= 1
 0 <= x264 <= 1
 0 <= x265 <= 1
 0 <= x266 <= 1
 0 <= x267 <= 1
 0 <= x268 <= 1
 0 <= x269 <= 1
 0 <= x270 <= 1
 0 <= x271 <= 1
 0 <= x272 <= 1
 0 <= x273 <= 1
 0 <= x274 <= 1
 0 <= x275 <= 1
 0 <= x276 <= 1
 0 <= x277 <= 1
 0 <= x278 <= 1
 0 <= x279 <= 1
 0 <= x280 <= 1
 0 <= x281 <= 1
 0 <= x282 <= 1
 0 <= x283 <= 1
 0 <= x284 <= 1
 0 <= x285 <= 1
 0 <= x286 <= 1
 0 <= x287 <= 1
 0 <= x288 <= 1
 0 <= x289 <= 1
 0 <= x290 <= 1
 0 <= x291 <= 1
 0 <= x292 <= 1
 0 <= x293 <= 1
 0 <= x294 <= 1
 0 <= x295 <= 1
 0 <= x296 <= 1
 0 <= x297 <= 1
 0 <= x298 <= 1
 0 <= x299 <= 1
 0 <= x300 <= 1
 0 <= x301 <= 1
 0 <= x302 <= 1
 0 <= x303 <= 1
 0 <= x304 <= 1
 0 <= x305 <= 1
 0 <= x306 <= 1
 0 <= x307 <= 1
 0 <= x308 <= 1
 0 <= x309 <= 1
 0 <= x310 <= 1
 0 <= x311 <= 1
 0 <= x312 <= 1
 0 <= x313 <= 1
 0 <= x314 <= 1
 0 <= x315 <= 1
 0 <= x316 <= 1
 0 <= x317 <= 1
 0 <= x318 <= 1
 0 <= x319 <= 1
 0 <= x320 <= 1
 0 <= x321 <= 1
 0 <= x322 <= 1
 0 <= x323 <= 1
 0 <= x324 <= 1
 0 <= x325 <= 1
 0 <= x326 <= 1
 0 <= x327 <= 1
 0 <= x328 <= 1
 0 <= x329 <= 1
 0 <= x330 <= 1
 0 <= x331 <= 1
 0 <= x332 <= 1
 0 <= x333 <= 1
 0 <= x334 <= 1
 0 <= x335 <= 1
 0 <= x336 <= 1
 0 <= x337 <= 1
 0 <= x338 <= 1
 0 <= x339 <= 1
 0 <= x340 <= 1
 0 <= x341 <= 1
 0 <= x342 <= 1
 0 <= x343 <= 1
 0 <= x344 <= 1
 0 <= x345 <= 1
 0 <= x346 <= 1
 0 <= x347 <= 1
 0 <= x348 <= 1
 0 <= x349 <= 1
 0 <= x350 <= 1
 0 <= x351 <= 1
 0 <= x352 <= 1
 0 <= x353 <= 1
 0 <= x354 <= 1
 0 <= x355 <= 1
 0 <= x356 <= 1
 0 <= x357 <= 1
 0 <= x358 <= 1
 0 <= x359 <= 1
 0 <= x360 <= 1
Binaries
 x301  x302  x303  x304  x305  x306  x307  x308  x309  x310  x311  x312  x313 
 x314  x315  x316  x317  x318  x319  x320  x321  x322  x323  x324  x325  x326 
 x327  x328  x329  x330  x331  x332  x333  x334  x335  x336  x337  x338  x339 
 x340  x341  x342  x343  x344  x345  x346  x347  x348  x349  x350  x351  x352 
 x353  x354  x355  x356  x357  x358  x359  x360 
End
